c Grafo no formato DIMACS 
p edge 70 209 
e 1 67 
e 1 57 
e 1 52 
e 1 49 
e 1 41 
e 1 40 
e 1 39 
e 1 29 
e 2 44 
e 2 42 
e 2 37 
e 2 32 
e 2 31 
e 2 30 
e 3 61 
e 3 57 
e 3 49 
e 3 46 
e 3 44 
e 3 22 
e 3 9 
e 4 40 
e 4 37 
e 4 36 
e 4 33 
e 4 25 
e 5 57 
e 5 46 
e 5 35 
e 5 28 
e 5 24 
e 5 15 
e 6 38 
e 6 10 
e 7 65 
e 7 55 
e 7 35 
e 7 11 
e 8 65 
e 8 45 
e 8 30 
e 9 66 
e 9 55 
e 9 48 
e 9 33 
e 10 33 
e 10 27 
e 10 25 
e 10 13 
e 11 70 
e 11 60 
e 11 22 
e 11 14 
e 11 13 
e 12 69 
e 12 59 
e 12 27 
e 12 23 
e 12 22 
e 13 65 
e 13 56 
e 13 54 
e 13 53 
e 13 47 
e 13 45 
e 13 44 
e 13 36 
e 13 33 
e 14 66 
e 14 59 
e 14 37 
e 14 29 
e 14 27 
e 15 50 
e 15 17 
e 16 69 
e 16 56 
e 16 22 
e 16 21 
e 17 40 
e 17 33 
e 17 32 
e 18 45 
e 18 34 
e 18 20 
e 19 60 
e 19 45 
e 21 63 
e 21 55 
e 21 50 
e 21 47 
e 21 33 
e 21 29 
e 22 70 
e 22 60 
e 22 30 
e 23 66 
e 23 56 
e 23 52 
e 23 45 
e 23 31 
e 24 53 
e 24 27 
e 25 69 
e 25 62 
e 25 59 
e 25 54 
e 25 49 
e 25 37 
e 25 36 
e 25 31 
e 26 63 
e 26 57 
e 26 30 
e 27 69 
e 27 46 
e 27 40 
e 28 65 
e 28 63 
e 28 52 
e 28 41 
e 28 40 
e 28 39 
e 29 61 
e 30 67 
e 30 65 
e 30 54 
e 30 46 
e 30 40 
e 31 59 
e 31 56 
e 31 54 
e 31 47 
e 31 46 
e 31 44 
e 32 61 
e 32 50 
e 32 44 
e 33 67 
e 33 63 
e 33 40 
e 33 35 
e 34 68 
e 34 51 
e 34 48 
e 35 69 
e 35 67 
e 35 66 
e 35 64 
e 35 62 
e 35 61 
e 35 60 
e 35 57 
e 36 57 
e 36 44 
e 36 42 
e 36 40 
e 37 62 
e 37 51 
e 37 47 
e 38 53 
e 38 42 
e 38 39 
e 39 61 
e 39 59 
e 39 42 
e 40 56 
e 41 60 
e 41 43 
e 42 70 
e 42 61 
e 42 57 
e 42 46 
e 42 43 
e 43 60 
e 43 58 
e 43 51 
e 43 47 
e 44 64 
e 44 63 
e 45 68 
e 46 59 
e 47 66 
e 48 68 
e 48 66 
e 48 62 
e 48 59 
e 48 53 
e 48 50 
e 49 66 
e 50 66 
e 50 65 
e 50 55 
e 50 54 
e 51 58 
e 52 57 
e 53 60 
e 54 56 
e 55 67 
e 56 68 
e 56 64 
e 58 70 
e 59 67 
e 59 64 
e 59 60 
e 61 65 
e 61 62 
e 64 65 
e 65 69 
